(set-logic QF_S)
(set-option :parse-transducers true)
(set-option :produce-models true)
(define-fun-rec toLower ((x String) (y String)) Bool
   (or (and (= x "") (= y ""))
       (and (not (= x "")) (not (= y ""))
           (= (char.code (str.head y))
               (ite (and (<= 65 (char.code (str.head x)))
                       (<= (char.code (str.head x)) 90))
                   (+ (char.code (str.head x)) 32)
                   (char.code (str.head x))))
           (toLower (str.tail x) (str.tail y))))
)
(declare-fun sym209 () String)
(declare-fun sym816 () String)
(declare-fun sym2319 () String)
(declare-fun sym551 () String)
(declare-fun sym2953 () String)
(declare-fun sym1457 () String)
(declare-fun sym2535 () String)
(declare-fun sym2107 () String)
(declare-fun sym4328 () String)
(declare-fun sym3799 () String)
(declare-fun sym1673 () String)
(declare-fun sym3169 () String)
(declare-fun sym2751 () String)
(declare-fun sym3587 () String)
(declare-fun sym1894 () String)
(declare-fun sym4015 () String)
(declare-fun sym3385 () String)
(declare-fun sym1241 () String)
(declare-fun sym1032 () String)
(declare-fun sym4231 () String)
(declare-fun sym161 () String)
(declare-fun L16  () String)
(declare-fun L27  () String)
(declare-fun L28  () String)
(declare-fun L19  () String)
(declare-fun L13  () String)
(declare-fun L35  () String)
(declare-fun L46  () String)
(declare-fun L14  () String)
(declare-fun L15  () String)
(declare-fun L7  () String)
(declare-fun L8  () String)
(declare-fun L53  () String)
(declare-fun L10  () String)
(declare-fun L6  () String)
(declare-fun L11  () String)
(declare-fun L22  () String)
(declare-fun L4  () String)
(declare-fun L1  () String)
(declare-fun L2  () String)
(declare-fun L0  () String)
(assert (toLower (str.substr sym816  0 1) L0 ))
(assert (toLower (str.substr sym4231  0 1) L2 ))
(assert (toLower (str.substr sym1673  0 1) L1 ))
(assert (toLower (str.substr sym2107  0 1) L4 ))
(assert (toLower (str.substr sym3385  0 1) L22 ))
(assert (toLower (str.substr sym3799  0 1) L11 ))
(assert (toLower (str.substr sym3169  0 1) L6 ))
(assert (toLower (str.substr sym2751  0 1) L10 ))
(assert (toLower (str.substr sym2535  0 1) L53 ))
(assert (toLower (str.substr sym551  0 1) L8 ))
(assert (toLower (str.substr sym3587  0 1) L7 ))
(assert (toLower (str.substr sym1032  0 1) L15 ))
(assert (toLower (str.substr sym1241  0 1) L14 ))
(assert (toLower (str.substr sym209  0 1) L46 ))
(assert (toLower (str.substr sym4015  0 1) L35 ))
(assert (toLower (str.substr sym4328  0 1) L13 ))
(assert (toLower (str.substr sym2319  0 1) L19 ))
(assert (toLower (str.substr sym1457  0 1) L28 ))
(assert (toLower (str.substr sym1894  0 1) L27 ))
(assert (toLower (str.substr sym2953  0 1) L16 ))

(assert (= L0 "g" ))
(assert (not (= L1 "l" )))
(assert (= "" "" ))
(assert (= L2 "g" ))
(assert (not (= L1 "k" )))
(assert (= "y" "y" ))
(assert (not (= "" sym3587 )))
(assert (not (= L4 "p" )))
(assert (= L1 "h" ))
(assert (not (= L6 "q" )))
(assert (not (= L7 "p" )))
(assert (= "" sym161 ))
(assert (not (= L8 "k" )))
(assert (not (= L1 "q" )))
(assert (not (= L10 "q" )))
(assert (not (= "" sym551 )))
(assert (not (= "" "n" )))
(assert (not (= L11 "k" )))
(assert (= L4 "l" ))
(assert (not (= "" L13 )))
(assert (not (= "" sym3385 )))
(assert (not (= "" "q" )))
(assert (not (= L14 "p" )))
(assert (not (= "" sym2751 )))
(assert (not (= "" sym1241 )))
(assert (not (= L15 "q" )))
(assert (not (= L16 "q" )))
(assert (not (= L0 "q" )))
(assert (not (= L13 "y" )))
(assert (not (= L19 "p" )))
(assert (not (= L19 "q" )))
(assert (not (= "" sym3169 )))
(assert (not (= "" sym3799 )))
(assert (not (= L0 "k" )))
(assert (not (= L22 "p" )))
(assert (not (= L2 "q" )))
(assert (not (= L22 "k" )))
(assert (not (= L2 "p" )))
(assert (not (= L11 "p" )))
(assert (not (= "" sym2953 )))
(assert (not (= "y" "n" )))
(assert (not (= L27 "q" )))
(assert (not (= "" sym1673 )))
(assert (= L28 "g" ))
(assert (not (= L15 "p" )))
(assert (not (= L6 "p" )))
(assert (not (= L27 "k" )))
(assert (not (= "" sym1457 )))
(assert (not (= L28 "k" )))
(assert (not (= L15 "k" )))
(assert (not (= L14 "k" )))
(assert (not (= L35 "q" )))
(assert (not (= L6 "k" )))
(assert (not (= "" sym2319 )))
(assert (not (= L8 "q" )))
(assert (= L15 "g" ))
(assert (not (= L16 "p" )))
(assert (= L22 "g" ))
(assert (not (= L1 "r" )))
(assert (not (= L4 "r" )))
(assert (not (= L27 "p" )))
(assert (not (= L7 "k" )))
(assert (not (= L10 "k" )))
(assert (not (= "" L46 )))
(assert (not (= L11 "q" )))
(assert (not (= "" sym4231 )))
(assert (not (= L14 "q" )))
(assert (not (= "" sym1032 )))
(assert (not (= L0 "p" )))
(assert (not (= L8 "p" )))
(assert (= L11 "g" ))
(assert (= L27 "g" ))
(assert (not (= L53 "q" )))
(assert (not (= L4 "k" )))
(assert (= L53 "g" ))
(assert (not (= "n" "y" )))
(assert (= L35 "g" ))
(assert (not (= L35 "k" )))
(assert (not (= L19 "k" )))
(assert (not (= L7 "r" )))
(assert (= L14 "g" ))
(assert (not (= L10 "p" )))
(assert (not (= "" sym2535 )))
(assert (not (= "" sym4328 )))
(assert (not (= L7 "g" )))
(assert (not (= L35 "p" )))
(assert (not (= L2 "k" )))
(assert (= L7 "l" ))
(assert (not (= "" sym209 )))
(assert (not (= "" "y" )))
(assert (not (= L16 "k" )))
(assert (not (= "" sym1894 )))
(assert (not (= L22 "q" )))
(assert (= L46 "y" ))
(assert (not (= "" sym4015 )))
(assert (= L10 "g" ))
(assert (not (= L53 "k" )))
(assert (not (= L7 "q" )))
(assert (not (= "" "y" )))
(assert (= L6 "g" ))
(assert (= L19 "g" ))
(assert (not (= L4 "q" )))
(assert (not (= L28 "q" )))
(assert (= L16 "g" ))
(assert (not (= L28 "p" )))
(assert (not (= L1 "g" )))
(assert (not (= "" sym816 )))
(assert (= L8 "g" ))
(assert (not (= L4 "g" )))
(assert (not (= L1 "p" )))
(assert (not (= "" sym2107 )))
(assert (not (= L53 "p" )))
(check-sat)
(get-model)
(exit)
